; SWAP2 SWAP3 SWAP2 DUP3 => DUP4 SWAP3 SWAP4
(set-option :produce-proofs true)
; 
(set-info :status unknown)
(declare-fun storage_t ((_ BitVec 256) (_ BitVec 256) (_ BitVec 256) (_ BitVec 256) Int (_ BitVec 256)) (_ BitVec 256))
(declare-fun storage_s ((_ BitVec 256) (_ BitVec 256) (_ BitVec 256) (_ BitVec 256) Int (_ BitVec 256)) (_ BitVec 256))
(declare-fun exc_halt_t (Int) Bool)
(declare-fun exc_halt_s (Int) Bool)
(declare-fun stack_t ((_ BitVec 256) (_ BitVec 256) (_ BitVec 256) (_ BitVec 256) Int (_ BitVec 6)) (_ BitVec 256))
(declare-fun stack_s ((_ BitVec 256) (_ BitVec 256) (_ BitVec 256) (_ BitVec 256) Int (_ BitVec 6)) (_ BitVec 256))
(declare-fun sc_t (Int) (_ BitVec 6))
(declare-fun sc_s (Int) (_ BitVec 6))
(declare-fun used_gas_t ((_ BitVec 256) (_ BitVec 256) (_ BitVec 256) (_ BitVec 256) Int) Int)
(declare-fun used_gas_s ((_ BitVec 256) (_ BitVec 256) (_ BitVec 256) (_ BitVec 256) Int) Int)
(assert
 (exists ((x_0 (_ BitVec 256)) (x_1 (_ BitVec 256)) (x_2 (_ BitVec 256)) (x_3 (_ BitVec 256)) )(let (($x6294 (forall ((w (_ BitVec 256)) )(let ((?x11694 (storage_t x_0 x_1 x_2 x_3 3 w)))
 (let ((?x8586 (storage_s x_0 x_1 x_2 x_3 4 w)))
 (= ?x8586 ?x11694))))
 ))
 (let (($x3614 (exc_halt_t 3)))
 (let (($x7172 (exc_halt_s 4)))
 (let (($x5321 (= $x7172 $x3614)))
 (let (($x1828 (forall ((n (_ BitVec 6)) )(let ((?x4919 (stack_t x_0 x_1 x_2 x_3 3 n)))
 (let ((?x7177 (stack_s x_0 x_1 x_2 x_3 4 n)))
 (let (($x11490 (= ?x7177 ?x4919)))
 (let ((?x11304 (sc_t 3)))
 (let (($x8930 (bvsle ?x11304 n)))
 (or $x8930 $x11490)))))))
 ))
 (let ((?x11304 (sc_t 3)))
 (let ((?x4305 (sc_s 4)))
 (let (($x8442 (= ?x4305 ?x11304)))
 (let ((?x10083 (used_gas_t x_0 x_1 x_2 x_3 0)))
 (let ((?x1763 (used_gas_s x_0 x_1 x_2 x_3 0)))
 (let (($x10569 (= ?x1763 ?x10083)))
 (let (($x9220 (forall ((w (_ BitVec 256)) )(let ((?x6562 (storage_t x_0 x_1 x_2 x_3 0 w)))
 (let ((?x1704 (storage_s x_0 x_1 x_2 x_3 0 w)))
 (= ?x1704 ?x6562))))
 ))
 (let (($x56 (exc_halt_t 0)))
 (let (($x57 (exc_halt_s 0)))
 (let (($x58 (= $x57 $x56)))
 (let (($x10132 (forall ((n (_ BitVec 6)) )(let ((?x63 (sc_t 0)))
 (let (($x11399 (bvsle ?x63 n)))
 (let ((?x11836 (stack_t x_0 x_1 x_2 x_3 0 n)))
 (let ((?x8705 (stack_s x_0 x_1 x_2 x_3 0 n)))
 (let (($x8721 (= ?x8705 ?x11836)))
 (or $x8721 $x11399)))))))
 ))
 (let ((?x63 (sc_t 0)))
 (let ((?x72 (sc_s 0)))
 (let (($x73 (= ?x72 ?x63)))
 (let (($x2688 (= $x3614 (or (exc_halt_t 2) (not (bvsle (_ bv0 6) (bvadd (_ bv59 6) (sc_t 2))))))))
 (let (($x10760 (forall ((w (_ BitVec 256)) )(let ((?x4719 (storage_t x_0 x_1 x_2 x_3 2 w)))
 (let ((?x11694 (storage_t x_0 x_1 x_2 x_3 3 w)))
 (= ?x11694 ?x4719))))
 ))
 (let (($x8606 (forall ((n (_ BitVec 6)) )(let ((?x8966 (stack_t x_0 x_1 x_2 x_3 2 n)))
 (let ((?x4919 (stack_t x_0 x_1 x_2 x_3 3 n)))
 (or (bvsle (bvadd (_ bv59 6) (sc_t 2)) n) (= ?x4919 ?x8966)))))
 ))
 (let ((?x2714 (sc_t 2)))
 (let (($x11170 (= ?x11304 ?x2714)))
 (let (($x7755 (= (used_gas_t x_0 x_1 x_2 x_3 3) (+ 3 (used_gas_t x_0 x_1 x_2 x_3 2)))))
 (let ((?x7962 (bvadd (_ bv62 6) ?x2714)))
 (let ((?x1438 (stack_t x_0 x_1 x_2 x_3 2 ?x7962)))
 (let ((?x4747 (bvadd (_ bv61 6) ?x2714)))
 (let ((?x4845 (stack_t x_0 x_1 x_2 x_3 2 ?x4747)))
 (let ((?x5901 (stack_t x_0 x_1 x_2 x_3 2 (bvadd (_ bv60 6) ?x2714))))
 (let ((?x2173 (bvadd (_ bv63 6) ?x2714)))
 (let ((?x9087 (stack_t x_0 x_1 x_2 x_3 2 ?x2173)))
 (let (($x10633 (= (stack_t x_0 x_1 x_2 x_3 3 (bvadd (_ bv63 6) ?x11304)) (stack_t x_0 x_1 x_2 x_3 2 (bvadd (_ bv59 6) ?x2714)))))
 (let (($x9627 (exc_halt_t 2)))
 (let (($x9441 (= $x9627 (or (exc_halt_t 1) (not (bvsle (_ bv0 6) (bvadd (_ bv60 6) (sc_t 1))))))))
 (let (($x6900 (forall ((w (_ BitVec 256)) )(let ((?x5066 (storage_t x_0 x_1 x_2 x_3 1 w)))
 (let ((?x4719 (storage_t x_0 x_1 x_2 x_3 2 w)))
 (= ?x4719 ?x5066))))
 ))
 (let (($x624 (forall ((n (_ BitVec 6)) )(let ((?x7861 (stack_t x_0 x_1 x_2 x_3 1 n)))
 (let ((?x8966 (stack_t x_0 x_1 x_2 x_3 2 n)))
 (or (bvsle (bvadd (_ bv60 6) (sc_t 1)) n) (= ?x8966 ?x7861)))))
 ))
 (let ((?x7154 (sc_t 1)))
 (let (($x2396 (= ?x2714 ?x7154)))
 (let ((?x7080 (used_gas_t x_0 x_1 x_2 x_3 2)))
 (let (($x1297 (not (= ((_ extract 6 6) (bvadd (_ bv1 7) (concat (_ bv0 1) ?x63))) (_ bv0 1)))))
 (let (($x8377 (exc_halt_t 1)))
 (let (($x3752 (= $x8377 (or $x56 $x1297 (not (bvsle (_ bv0 6) (bvadd (_ bv60 6) ?x63)))))))
 (let (($x1892 (forall ((w (_ BitVec 256)) )(let ((?x6562 (storage_t x_0 x_1 x_2 x_3 0 w)))
 (let ((?x5066 (storage_t x_0 x_1 x_2 x_3 1 w)))
 (= ?x5066 ?x6562))))
 ))
 (let (($x8967 (forall ((n (_ BitVec 6)) )(let ((?x11836 (stack_t x_0 x_1 x_2 x_3 0 n)))
 (let ((?x7861 (stack_t x_0 x_1 x_2 x_3 1 n)))
 (let ((?x63 (sc_t 0)))
 (let ((?x6617 (bvadd (_ bv60 6) ?x63)))
 (let (($x3923 (bvsle ?x6617 n)))
 (or $x3923 (= ?x7861 ?x11836))))))))
 ))
 (let (($x3155 (= ?x7154 (bvadd (_ bv1 6) ?x63))))
 (let (($x79 (= (stack_t x_0 x_1 x_2 x_3 1 (bvadd (_ bv63 6) ?x63)) (stack_t x_0 x_1 x_2 x_3 0 (bvadd (_ bv63 6) ?x63)))))
 (let (($x9255 (= (stack_t x_0 x_1 x_2 x_3 1 (bvadd (_ bv62 6) ?x63)) (stack_t x_0 x_1 x_2 x_3 0 (bvadd (_ bv62 6) ?x63)))))
 (let (($x10816 (= (stack_t x_0 x_1 x_2 x_3 1 (bvadd (_ bv61 6) ?x63)) (stack_t x_0 x_1 x_2 x_3 0 (bvadd (_ bv61 6) ?x63)))))
 (let ((?x6617 (bvadd (_ bv60 6) ?x63)))
 (let ((?x4602 (stack_t x_0 x_1 x_2 x_3 0 ?x6617)))
 (let (($x4396 (not (bvsle (_ bv0 6) (bvadd (_ bv61 6) (sc_s 3))))))
 (let (($x995 (not (= ((_ extract 6 6) (bvadd (_ bv1 7) (concat (_ bv0 1) (sc_s 3)))) (_ bv0 1)))))
 (let (($x292 (exc_halt_s 3)))
 (let (($x1819 (forall ((w (_ BitVec 256)) )(let ((?x4798 (storage_s x_0 x_1 x_2 x_3 3 w)))
 (let ((?x8586 (storage_s x_0 x_1 x_2 x_3 4 w)))
 (= ?x8586 ?x4798))))
 ))
 (let (($x10815 (forall ((n (_ BitVec 6)) )(let ((?x275 (sc_s 3)))
 (let ((?x8712 (bvadd (_ bv61 6) ?x275)))
 (let (($x10862 (bvsle ?x8712 n)))
 (let ((?x2034 (stack_s x_0 x_1 x_2 x_3 3 n)))
 (let ((?x7177 (stack_s x_0 x_1 x_2 x_3 4 n)))
 (or (= ?x7177 ?x2034) $x10862)))))))
 ))
 (let (($x9468 (= ?x4305 (bvadd (_ bv1 6) (sc_s 3)))))
 (let (($x11084 (= (used_gas_s x_0 x_1 x_2 x_3 4) (+ 3 (used_gas_s x_0 x_1 x_2 x_3 3)))))
 (let ((?x275 (sc_s 3)))
 (let ((?x6326 (bvadd (_ bv63 6) ?x275)))
 (let ((?x10378 (stack_s x_0 x_1 x_2 x_3 3 ?x6326)))
 (let ((?x2713 (bvadd (_ bv62 6) ?x275)))
 (let ((?x6092 (stack_s x_0 x_1 x_2 x_3 3 ?x2713)))
 (let ((?x8712 (bvadd (_ bv61 6) ?x275)))
 (let ((?x4871 (stack_s x_0 x_1 x_2 x_3 3 ?x8712)))
 (let (($x8715 (= $x292 (or (exc_halt_s 2) (not (bvsle (_ bv0 6) (bvadd (_ bv61 6) (sc_s 2))))))))
 (let (($x648 (forall ((w (_ BitVec 256)) )(let ((?x6961 (storage_s x_0 x_1 x_2 x_3 2 w)))
 (let ((?x4798 (storage_s x_0 x_1 x_2 x_3 3 w)))
 (= ?x4798 ?x6961))))
 ))
 (let (($x589 (forall ((n (_ BitVec 6)) )(let ((?x218 (sc_s 2)))
 (let ((?x3497 (bvadd (_ bv61 6) ?x218)))
 (let (($x6375 (bvsle ?x3497 n)))
 (let ((?x5009 (stack_s x_0 x_1 x_2 x_3 2 n)))
 (let ((?x2034 (stack_s x_0 x_1 x_2 x_3 3 n)))
 (or (= ?x2034 ?x5009) $x6375)))))))
 ))
 (let ((?x218 (sc_s 2)))
 (let (($x2385 (= ?x275 ?x218)))
 (let ((?x4108 (used_gas_s x_0 x_1 x_2 x_3 3)))
 (let (($x247 (exc_halt_s 2)))
 (let (($x20 (= $x247 (or (exc_halt_s 1) (not (bvsle (_ bv0 6) (bvadd (_ bv60 6) (sc_s 1))))))))
 (let (($x10455 (forall ((w (_ BitVec 256)) )(let ((?x3010 (storage_s x_0 x_1 x_2 x_3 1 w)))
 (let ((?x6961 (storage_s x_0 x_1 x_2 x_3 2 w)))
 (= ?x6961 ?x3010))))
 ))
 (let (($x6219 (forall ((n (_ BitVec 6)) )(let ((?x154 (sc_s 1)))
 (let ((?x10691 (bvadd (_ bv60 6) ?x154)))
 (let (($x9677 (bvsle ?x10691 n)))
 (let ((?x5807 (stack_s x_0 x_1 x_2 x_3 1 n)))
 (let ((?x5009 (stack_s x_0 x_1 x_2 x_3 2 n)))
 (or (= ?x5009 ?x5807) $x9677)))))))
 ))
 (let ((?x154 (sc_s 1)))
 (let (($x10223 (= ?x218 ?x154)))
 (let ((?x140 (used_gas_s x_0 x_1 x_2 x_3 2)))
 (let ((?x6501 (bvadd (_ bv62 6) ?x154)))
 (let ((?x7837 (stack_s x_0 x_1 x_2 x_3 1 ?x6501)))
 (let ((?x11717 (bvadd (_ bv62 6) ?x218)))
 (let ((?x2235 (stack_s x_0 x_1 x_2 x_3 2 ?x11717)))
 (let ((?x555 (bvadd (_ bv61 6) ?x154)))
 (let ((?x9122 (stack_s x_0 x_1 x_2 x_3 1 ?x555)))
 (let ((?x3497 (bvadd (_ bv61 6) ?x218)))
 (let ((?x3132 (stack_s x_0 x_1 x_2 x_3 2 ?x3497)))
 (let ((?x354 (bvadd (_ bv63 6) ?x154)))
 (let ((?x574 (stack_s x_0 x_1 x_2 x_3 1 ?x354)))
 (let ((?x5342 (bvadd (_ bv63 6) ?x218)))
 (let ((?x7841 (stack_s x_0 x_1 x_2 x_3 2 ?x5342)))
 (let (($x10236 (forall ((w (_ BitVec 256)) )(let ((?x1704 (storage_s x_0 x_1 x_2 x_3 0 w)))
 (let ((?x3010 (storage_s x_0 x_1 x_2 x_3 1 w)))
 (= ?x3010 ?x1704))))
 ))
 (let (($x2930 (forall ((n (_ BitVec 6)) )(let ((?x8705 (stack_s x_0 x_1 x_2 x_3 0 n)))
 (let ((?x5807 (stack_s x_0 x_1 x_2 x_3 1 n)))
 (or (= ?x5807 ?x8705) (bvsle (bvadd (_ bv61 6) (sc_s 0)) n)))))
 ))
 (let (($x1448 (= ?x154 ?x72)))
 (let (($x8038 (forall ((w (_ BitVec 256)) )(let ((?x1704 (storage_s x_0 x_1 x_2 x_3 0 w)))
 (= ?x1704 (_ bv0 256))))
 ))
 (let (($x9099 (= ?x1763 0)))
 (let (($x11580 (not $x57)))
 (let (($x3422 (= (stack_s x_0 x_1 x_2 x_3 0 (_ bv3 6)) x_3)))
 (let (($x6654 (= (stack_s x_0 x_1 x_2 x_3 0 (_ bv2 6)) x_2)))
 (let (($x11265 (= (stack_s x_0 x_1 x_2 x_3 0 (_ bv1 6)) x_1)))
 (let (($x11191 (= (stack_s x_0 x_1 x_2 x_3 0 (_ bv0 6)) x_0)))
 (let (($x11199 (= ?x72 (_ bv4 6))))
 (and $x11199 $x11191 $x11265 $x6654 $x3422 $x11580 $x9099 $x8038 (= ?x574 (stack_s x_0 x_1 x_2 x_3 0 (bvadd (_ bv61 6) ?x72))) (= ?x9122 (stack_s x_0 x_1 x_2 x_3 0 (bvadd (_ bv63 6) ?x72))) (= ?x7837 (stack_s x_0 x_1 x_2 x_3 0 (bvadd (_ bv62 6) ?x72))) (= (used_gas_s x_0 x_1 x_2 x_3 1) (+ 3 ?x1763)) $x1448 $x2930 $x10236 (= (exc_halt_s 1) (or $x57 (not (bvsle (_ bv0 6) (bvadd (_ bv61 6) ?x72))))) (= ?x7841 (stack_s x_0 x_1 x_2 x_3 1 (bvadd (_ bv60 6) ?x154))) (= (stack_s x_0 x_1 x_2 x_3 2 (bvadd (_ bv60 6) ?x218)) ?x574) (= ?x3132 ?x9122) (= ?x2235 ?x7837) (= ?x140 (+ 3 (used_gas_s x_0 x_1 x_2 x_3 1))) $x10223 $x6219 $x10455 $x20 (= ?x10378 ?x3132) (= ?x4871 ?x7841) (= ?x6092 ?x2235) (= ?x4108 (+ 3 ?x140)) $x2385 $x589 $x648 $x8715 (= (stack_s x_0 x_1 x_2 x_3 4 (bvadd (_ bv63 6) ?x4305)) ?x4871) (= (stack_s x_0 x_1 x_2 x_3 4 ?x8712) ?x4871) (= (stack_s x_0 x_1 x_2 x_3 4 ?x2713) ?x6092) (= (stack_s x_0 x_1 x_2 x_3 4 ?x6326) ?x10378) $x11084 $x9468 $x10815 $x1819 (= $x7172 (or $x292 $x995 $x4396)) (= (stack_t x_0 x_1 x_2 x_3 1 (bvadd (_ bv63 6) ?x7154)) ?x4602) (= (stack_t x_0 x_1 x_2 x_3 1 ?x6617) ?x4602) $x10816 $x9255 $x79 (= (used_gas_t x_0 x_1 x_2 x_3 1) (+ 3 ?x10083)) $x3155 $x8967 $x1892 $x3752 (= ?x9087 (stack_t x_0 x_1 x_2 x_3 1 (bvadd (_ bv60 6) ?x7154))) (= ?x5901 (stack_t x_0 x_1 x_2 x_3 1 (bvadd (_ bv63 6) ?x7154))) (= ?x4845 (stack_t x_0 x_1 x_2 x_3 1 (bvadd (_ bv61 6) ?x7154))) (= ?x1438 (stack_t x_0 x_1 x_2 x_3 1 (bvadd (_ bv62 6) ?x7154))) (= ?x7080 (+ 3 (used_gas_t x_0 x_1 x_2 x_3 1))) $x2396 $x624 $x6900 $x9441 $x10633 (= (stack_t x_0 x_1 x_2 x_3 3 (bvadd (_ bv59 6) ?x11304)) ?x9087) (= (stack_t x_0 x_1 x_2 x_3 3 (bvadd (_ bv60 6) ?x11304)) ?x5901) (= (stack_t x_0 x_1 x_2 x_3 3 (bvadd (_ bv61 6) ?x11304)) ?x4845) (= (stack_t x_0 x_1 x_2 x_3 3 (bvadd (_ bv62 6) ?x11304)) ?x1438) $x7755 $x11170 $x8606 $x10760 $x2688 $x73 $x10132 $x58 $x9220 $x10569 (not (and $x8442 $x1828 $x5321 $x6294)))))))))))))))))))))))))))))))))))))))))))))))))))))))))))))))))))))))))))))))))))))))))))))))))))))))))
 )
(check-sat)
(get-proof)
